jobs 122 
horizon 705 
PRECEDENCE:
1    
2    1
3    1
4    1
5    3
6    2
7    4
8    4
9    7
10    3
11    10
12    10
13    2
14    3
15    4
16    13
17    2 15
18    16
19    18
20    12
21    13
22    16
23    13
24    16 20
25    11
26    22
27    9
28    5
29    17
30    29
31    5
32    24
33    9 30
34    12
35    8 19
36    7
37    34
38    5 20
39    14 33 36
40    8 25
41    21
42    26
43    11 12 35
44    18
45    32
46    42
47    37 44
48    22 31
49    40
50    38 48
51    14 43
52    14
53    9 15
54    17 46
55    52
56    42
57    25 55
58    43
59    39 49 54
60    46 49 57
61    30 47
62    42 61
63    41 46 62
64    23
65    23 24 38
66    26 29 64
67    18 56 60
68    8 30 66
69    44 64
70    27 43 61
71    36
72    32 53 68
73    10 35 55
74    54 65 71
75    22 47 58
76    47 50
77    56 62 71
78    24 49 51
79    39 68 77
80    36 38
81    64 76 80
82    37 67 73
83    33 66 73
84    33 63 80
85    19 79 81
86    60 78 80
87    44 45 72
88    69 76 83
89    50 58 83
90    7 19 62
91    53 69 76
92    27 72 74
93    59 75 89
94    6 84 88
95    45 50 72
96    53 77 93
97    79 91 96
98    60 88 89
99    56 89 91
100    41 61 73
101    54 55 95
102    68 84 90
103    95 96 102
104    21 78 82
105    71 84 101
106    92 99 100
107    75 85 106
108    25 95 107
109    70 93 102
110    32 98 109
111    87 94 106
112    28 35 105
113    15 86 104
114    17 81 113
115    51 91 112
116    78 103 108
117    88 114 116
118    97 101 117
119    65 82 97
120    39 98 111
121    110 115 118
122    119 120 121
RESOURCEAVAILABILITY 23
REQUESTS/DURATIONS: 
 1 0 0 
 2 6 5 
 3 3 1 
 4 5 10 
 5 5 5 
 6 1 4 
 7 5 2 
 8 9 6 
 9 3 1 
 10 8 6 
 11 1 6 
 12 8 1 
 13 10 5 
 14 8 5 
 15 3 9 
 16 7 6 
 17 3 9 
 18 7 9 
 19 6 1 
 20 4 5 
 21 10 7 
 22 7 3 
 23 7 1 
 24 7 1 
 25 2 3 
 26 9 9 
 27 10 7 
 28 3 3 
 29 8 4 
 30 5 2 
 31 6 3 
 32 7 10 
 33 1 5 
 34 3 6 
 35 10 3 
 36 8 8 
 37 7 2 
 38 5 3 
 39 7 7 
 40 9 10 
 41 9 5 
 42 2 2 
 43 1 6 
 44 6 2 
 45 3 3 
 46 8 7 
 47 10 6 
 48 10 5 
 49 1 1 
 50 5 4 
 51 7 3 
 52 6 5 
 53 7 8 
 54 4 6 
 55 7 1 
 56 6 6 
 57 4 1 
 58 7 9 
 59 9 1 
 60 5 5 
 61 2 6 
 62 3 9 
 63 9 10 
 64 3 4 
 65 5 5 
 66 7 5 
 67 5 6 
 68 5 10 
 69 8 7 
 70 10 9 
 71 7 9 
 72 1 8 
 73 5 9 
 74 3 6 
 75 5 2 
 76 1 5 
 77 9 4 
 78 2 1 
 79 1 7 
 80 10 9 
 81 10 4 
 82 9 2 
 83 9 1 
 84 5 1 
 85 8 6 
 86 7 4 
 87 6 9 
 88 3 10 
 89 8 2 
 90 7 1 
 91 5 9 
 92 8 6 
 93 3 7 
 94 8 8 
 95 7 1 
 96 8 1 
 97 3 3 
 98 3 5 
 99 6 9 
100 5 6 
101 9 10 
102 5 10 
103 7 1 
104 5 6 
105 6 6 
106 1 3 
107 9 3 
108 7 7 
109 8 6 
110 7 6 
111 10 7 
112 9 3 
113 5 10 
114 2 7 
115 3 7 
116 8 2 
117 2 6 
118 8 7 
119 4 6 
120 6 10 
121 5 3 
122 0 0 
